30 30
20
3 3 0 0
3 4 24 0
3 5 21 0
3 6 18 24
3 7 24 23
3 8 27 22
3 9 27 13
3 10 18 14
3 11 0 19
3 13 27 0
3 14 18 0
3 16 0 3
3 19 24 4
3 25 21 5
4 3 14 13
4 4 14 9
4 6 14 16
4 8 14 22
4 9 14 0
11 30 3 0
